NAME: set3_case2_4_20
COMMENT: 1617
VEHICLE: 37
TIME: 600
DIMENSION: 20
CAPACITY: 10
DELIVERY_SECTION
0 0 0
1 1 2
2 1 2
3 1 1
4 2 2
5 2 2
6 2 1
7 3 2
8 3 2
9 3 1
10 4 2
11 4 2
12 4 1
13 5 2
14 5 2
15 5 1
16 6 2
17 6 2
18 6 1
19 7 2
20 7 2
21 7 1
22 8 2
23 8 2
24 8 1
25 9 2
26 9 2
27 9 1
28 10 2
29 10 2
30 10 1
31 11 2
32 11 2
33 11 1
34 12 2
35 12 2
36 12 1
37 13 2
38 13 2
39 13 1
40 14 2
41 14 2
42 14 1
43 15 2
44 15 2
45 15 1
46 16 2
47 16 2
48 16 1
49 17 2
50 17 2
51 17 1
52 18 2
53 18 2
54 18 1
55 19 2
56 19 2
57 19 1
PICKUP_SECTION
0 0 0
1 1 2
2 1 2
3 1 2
4 1 2
5 1 2
6 2 2
7 2 2
8 2 2
9 2 2
10 2 2
11 2 1
12 3 2
13 3 2
14 3 2
15 3 2
16 3 2
17 3 2
18 4 2
19 4 2
20 4 2
21 4 2
22 4 2
23 4 2
24 4 1
25 5 2
26 5 2
27 5 2
28 5 2
29 5 2
30 5 2
31 5 2
32 6 2
33 6 2
34 6 2
35 6 2
36 6 2
37 6 2
38 6 2
39 6 1
40 7 2
41 7 2
42 7 2
43 7 2
44 7 2
45 7 2
46 7 2
47 7 2
48 8 2
49 8 2
50 8 2
51 8 2
52 8 2
53 8 2
54 8 2
55 8 2
56 8 1
57 9 2
58 9 2
59 9 2
60 9 2
61 9 2
62 9 2
63 9 2
64 9 2
65 9 2
66 10 2
67 10 2
68 10 2
69 10 2
70 10 2
71 10 2
72 10 2
73 10 2
74 10 2
75 10 1
76 11 2
77 11 2
78 11 2
79 11 2
80 11 2
81 11 2
82 11 2
83 11 2
84 11 2
85 11 2
86 12 2
87 12 2
88 12 2
89 12 2
90 12 2
91 12 2
92 12 2
93 12 2
94 12 2
95 12 2
96 12 1
97 13 2
98 13 2
99 13 2
100 13 2
101 13 2
102 13 2
103 13 2
104 13 2
105 13 2
106 13 2
107 13 2
108 14 2
109 14 2
110 14 2
111 14 2
112 14 2
113 14 2
114 14 2
115 14 2
116 14 2
117 14 2
118 14 2
119 14 1
120 15 2
121 15 2
122 15 2
123 15 2
124 15 2
125 15 2
126 15 2
127 15 2
128 15 2
129 15 2
130 15 2
131 15 2
132 16 2
133 16 2
134 16 2
135 16 2
136 16 2
137 16 2
138 16 2
139 16 2
140 16 2
141 16 2
142 16 2
143 16 2
144 16 1
145 17 2
146 17 2
147 17 2
148 17 2
149 17 2
150 17 2
151 17 2
152 17 2
153 17 2
154 17 2
155 17 2
156 17 2
157 17 2
158 18 2
159 18 2
160 18 2
161 18 2
162 18 2
163 18 2
164 18 2
165 18 2
166 18 2
167 18 2
168 18 2
169 18 2
170 18 2
171 18 1
172 19 2
173 19 2
174 19 2
175 19 2
176 19 2
177 19 2
178 19 2
179 19 2
180 19 2
181 19 2
182 19 2
183 19 2
184 19 2
185 19 2
NODE_SECTION
DISTANCE_SECTION
10 11 12 13 14 15 16 17 18 19 20 21 22 23 24 25 26 27 28 
10 11 12 13 14 15 16 17 18 19 20 21 22 23 24 25 26 27 
10 11 12 13 14 15 16 17 18 19 20 21 22 23 24 25 26 
10 11 12 13 14 15 16 17 18 19 20 21 22 23 24 25 
10 11 12 13 14 15 16 17 18 19 20 21 22 23 24 
10 11 12 13 14 15 16 17 18 19 20 21 22 23 
10 11 12 13 14 15 16 17 18 19 20 21 22 
10 11 12 13 14 15 16 17 18 19 20 21 
10 11 12 13 14 15 16 17 18 19 20 
10 11 12 13 14 15 16 17 18 19 
10 11 12 13 14 15 16 17 18 
10 11 12 13 14 15 16 17 
10 11 12 13 14 15 16 
10 11 12 13 14 15 
10 11 12 13 14 
10 11 12 13 
10 11 12 
10 11 
10 
DEPOT_SECTION
0
EOF